1 2 3 4 5
1 2 4 5 6
1 6 7
2 3 7
7 8
5 8
3 9
1
5
9
10 12
1 7 4 6 9 11 7 1 23 567 9 10 00 000 0000 1234 
4 6 9 11 7 4 6 9 11 7
1 7 4 6 9 11 7 1 23 567 9 10 00 000 0000 1233
1 7 4 6 9 11 7 1 23 567 9 10 0 1233
0